50 1828
705 637 995 339 796 1116 840 1186 1145 585 918 930 450 609 490 891 441 465 845 312 1248 630 375 639 724 413 779 1170 533 1191 976 343 951 238 1074 772 964 318 601 606 503 876 1296 702 1101 234 751 931 1079 664 
505 437 795 139 596 816 540 986 945 385 618 730 150 409 290 691 241 265 645 112 948 430 175 439 524 213 579 870 333 991 776 143 751 38 774 572 764 118 401 306 303 676 996 402 901 34 551 731 879 464 
